DIMENSION :8
NODE_COORD_SECTION
1 73.71609277013596 91.70473942464653
2 -79.78749183367171 -72.89565424169132
3 -35.72113811284639 75.25583471241302
4 18.82757103173593 -94.83310036810076
5 14.627481205384171 54.86316316535812
6 22.371785360648857 54.44158929735491
7 -38.39649150254287 -81.56905527133969
8 -43.49513780263745 23.953793670262826
EOF
